solution status: optimal solution found
objective value:                                    0
$_165_y                                            -9 	(obj:0)
$_165_z                                             1 	(obj:0)
$_53_y                                             -6 	(obj:0)
$_53_z                                             -9 	(obj:0)
$_55_y                                             -5 	(obj:0)
$_55_z                                             -9 	(obj:0)
$_54_y                                             -7 	(obj:0)
$_54_z                                             -9 	(obj:0)
$_247_y                                            -5 	(obj:0)
$_247_z                                            -3 	(obj:0)
$_281_y                                            -1 	(obj:0)
$_281_z                                            -3 	(obj:0)
$_31_y                                            -11 	(obj:0)
$_31_z                                             -3 	(obj:0)
$_207_y                                            -5 	(obj:0)
$_207_z                                             5 	(obj:0)
$_33_y                                            -12 	(obj:0)
$_33_z                                             -3 	(obj:0)
$_89_y                                            -10 	(obj:0)
$_89_z                                             -1 	(obj:0)
$_166_y                                            -7 	(obj:0)
$_166_z                                             3 	(obj:0)
$_248_y                                            -2 	(obj:0)
$_248_z                                             1 	(obj:0)
$_32_y                                            -13 	(obj:0)
$_32_z                                             -3 	(obj:0)
$_206_y                                            -6 	(obj:0)
$_206_z                                             1 	(obj:0)
$_88_y                                             -5 	(obj:0)
$_88_z                                             -7 	(obj:0)
